000 -99 -99 -99 -99 -99 000 -99 -99 -99 -99 -99 -99 000 -99 -99 000 000 -99 -99 -99 -99 -99 -99 -99 000 000 000 000 000 000
000 -99 -99 -99 -99 -99 000 -99 -99 -99 -99 -99 -99 -99 000 -99 000 000 -99 -99 000 000 000 000 000 000 000 000 000 000 000
000 -99 -99 000 000 -99 000 000 000 -99 -99 -99 -99 -99 000 000 000 000 -99 -99 000 000 000 000 000 000 000 000 000 000 000
000 000 000 000 000 000 000 000 000 -99 -99 000 000 -99 000 000 000 -99 -99 -99 000 000 000 000 000 000 000 000 000 -99 000
000 000 000 000 000 000 000 000 000 -99 -99 000 000 000 000 000 000 -99 000 001 000 000 000 000 000 000 000 000 000 -99 000
000 000 000 000 000 000 000 000 000 -99 -99 000 000 000 000 000 000 000 000 001 002 008 000 000 000 000 000 000 -99 -99 000
000 000 000 000 000 000 000 000 000 000 000 000 000 000 000 000 000 000 001 002 012 016 001 000 000 000 000 -99 -99 -99 -99
000 000 000 000 000 000 000 000 000 000 000 000 000 000 001 001 002 010 007 008 022 069 015 002 001 001 000 -99 -99 000 000
000 000 000 000 000 000 000 000 000 000 000 000 000 000 001 002 005 009 015 021 044 092 034 006 002 002 000 000 000 000 000
000 000 000 000 000 000 -99 000 000 000 000 000 000 000 000 002 005 007 015 021 043 085 054 035 015 006 002 001 001 000 000
000 000 000 000 000 -99 000 000 000 000 000 000 000 000 000 000 001 001 002 013 031 048 041 030 040 054 026 005 004 000 000
000 000 000 000 000 000 000 000 000 000 000 000 000 000 000 000 000 001 002 003 021 030 027 022 069 179 211 098 017 003 000
000 000 000 000 000 000 000 000 000 -99 000 000 000 000 000 000 000 000 001 001 002 009 021 029 066 149 265 172 118 030 003
000 000 -99 000 000 000 000 000 -99 -99 -99 000 000 000 000 000 000 000 000 001 004 005 014 048 107 172 165 203 179 050 004
000 000 000 -99 000 000 000 000 -99 -99 -99 -99 000 000 000 000 000 000 001 001 004 010 020 048 098 143 140 111 089 046 004
000 000 000 000 000 000 -99 000 000 -99 -99 -99 -99 000 000 000 000 000 000 002 007 025 027 046 073 080 075 047 054 022 002
000 000 000 000 000 000 000 000 000 -99 -99 -99 000 000 000 000 000 000 002 003 009 017 040 047 054 033 024 021 022 026 003
000 000 000 000 -99 000 000 000 -99 -99 -99 -99 -99 000 000 000 000 001 005 019 028 023 028 015 008 020 010 011 015 013 001
000 000 000 000 -99 -99 000 000 000 -99 -99 -99 -99 000 000 000 001 005 014 025 039 031 033 011 004 004 001 005 002 001 000
000 000 000 000 000 -99 000 000 000 -99 -99 -99 -99 000 000 000 003 007 040 048 081 042 012 001 001 001 000 004 000 000 000
-99 000 000 000 000 000 000 000 000 -99 -99 -99 -99 000 000 002 002 005 017 019 024 014 003 000 001 001 000 -99 -99 000 -99
000 000 000 000 000 000 000 000 000 -99 -99 -99 000 000 000 001 004 003 006 010 004 002 000 001 001 001 001 -99 -99 -99 -99
000 000 000 000 000 000 000 000 000 -99 -99 -99 000 000 000 001 002 002 005 008 002 001 000 001 001 001 001 -99 -99 -99 -99
000 000 000 000 000 000 000 000 000 -99 -99 -99 000 000 000 001 001 001 003 004 001 000 000 001 001 001 -99 -99 -99 -99 -99
000 -99 000 000 000 000 000 000 000 -99 -99 -99 000 000 000 000 000 000 002 001 000 000 000 001 001 001 -99 -99 -99 -99 -99
-99 -99 000 000 000 000 000 000 -99 000 000 -99 -99 -99 000 000 000 000 000 000 000 000 000 -99 -99 -99 -99 -99 -99 -99 000
000 -99 -99 000 000 000 000 000 -99 -99 -99 -99 -99 -99 -99 000 000 000 000 000 000 000 000 -99 -99 -99 -99 -99 -99 -99 -99
000 -99 -99 000 000 000 000 000 -99 -99 -99 -99 -99 -99 000 000 000 000 000 -99 -99 000 000 -99 -99 -99 -99 -99 -99 -99 -99
000 000 -99 -99 000 000 000 000 -99 -99 -99 -99 -99 -99 000 000 000 000 000 -99 -99 000 -99 -99 -99 -99 -99 -99 -99 -99 -99
000 000 -99 -99 000 000 000 000 000 -99 -99 -99 -99 -99 000 000 000 000 000 -99 -99 000 -99 000 000 -99 -99 -99 -99 -99 -99
000 000 000 -99 000 000 000 000 000 -99 -99 -99 -99 -99 000 000 000 000 000 000 -99 000 -99 000 000 -99 -99 -99 -99 -99 -99
000 000 000 -99 000 000 000 000 000 -99 -99 -99 -99 000 000 000 000 000 000 -99 000 000 000 000 000 000 -99 000 000 -99 -99
000 000 000 000 000 000 000 000 000 -99 -99 -99 -99 000 000 000 000 000 000 -99 000 000 000 000 000 000 -99 000 -99 -99 -99
-99 -99 000 -99 000 000 000 000 000 -99 -99 -99 000 000 000 000 000 000 000 000 000 000 000 000 000 000 000 000 -99 -99 -99
-99 -99 -99 -99 -99 000 000 -99 000 -99 -99 -99 000 000 000 000 000 000 002 000 000 000 000 000 000 000 000 000 -99 -99 -99
-99 -99 -99 -99 000 -99 -99 -99 000 -99 -99 -99 -99 000 000 000 000 000 001 000 000 000 000 000 000 000 000 000 -99 -99 -99
000 000 -99 000 000 -99 -99 000 000 000 -99 -99 -99 -99 000 000 000 000 000 000 000 000 -99 -99 000 000 000 000 -99 -99 -99
000 000 -99 000 000 -99 -99 000 000 -99 -99 -99 -99 -99 000 000 000 000 000 000 000 000 -99 000 000 000 000 -99 -99 -99 -99
000 000 -99 -99 -99 -99 -99 -99 -99 -99 -99 -99 -99 -99 000 000 000 000 -99 -99 -99 000 000 000 -99 000 -99 -99 -99 -99 -99
-99 -99 -99 -99 -99 -99 -99 -99 -99 -99 -99 -99 000 000 000 000 000 -99 -99 -99 -99 -99 -99 -99 -99 000 000 -99 -99 -99 -99
-99 -99 -99 -99 -99 -99 -99 -99 -99 -99 -99 -99 000 000 000 000 -99 -99 -99 -99 -99 -99 -99 -99 -99 -99 -99 -99 -99 -99 -99
-99 -99 -99 -99 -99 -99 -99 -99 -99 -99 -99 -99 000 000 000 000 -99 -99 -99 -99 -99 -99 -99 -99 -99 -99 -99 -99 -99 -99 -99
-99 000 000 -99 -99 -99 -99 000 000 -99 -99 000 000 000 -99 000 -99 -99 -99 -99 -99 -99 -99 -99 -99 -99 -99 -99 -99 -99 -99
000 000 000 000 000 000 000 000 000 000 -99 000 000 000 000 000 -99 -99 000 000 000 -99 -99 -99 -99 -99 -99 -99 -99 -99 -99
000 000 000 000 000 001 001 002 000 000 000 000 000 -99 000 000 -99 -99 000 000 000 -99 -99 -99 -99 -99 -99 000 -99 -99 -99
000 000 001 000 003 007 004 010 003 000 000 000 000 -99 -99 -99 -99 000 000 000 -99 -99 -99 000 -99 -99 -99 000 -99 -99 -99
000 000 001 002 016 016 024 017 003 000 000 000 000 -99 -99 -99 -99 000 000 000 -99 -99 000 000 -99 000 000 000 -99 -99 -99
000 000 001 002 013 021 016 012 004 000 000 000 000 -99 -99 -99 -99 000 000 000 -99 000 000 000 -99 000 000 000 000 -99 -99
000 000 001 002 008 007 011 008 002 000 000 000 000 -99 -99 -99 001 003 000 000 -99 000 000 -99 -99 000 000 000 000 -99 -99
000 000 000 000 002 006 006 004 002 001 000 000 000 000 000 000 004 001 000 000 -99 000 -99 -99 -99 -99 000 000 -99 -99 -99
-99 000 000 000 000 003 003 003 001 002 001 000 000 000 000 001 008 001 000 000 -99 -99 -99 -99 -99 -99 -99 -99 -99 -99 -99
-99 -99 -99 000 000 001 001 002 001 003 003 000 000 000 000 002 002 001 000 -99 000 -99 -99 -99 -99 -99 -99 -99 -99 -99 -99
-99 -99 -99 000 000 000 000 001 001 003 002 002 002 003 004 001 001 000 000 -99 -99 -99 -99 -99 -99 -99 -99 -99 -99 -99 -99
-99 -99 -99 -99 000 000 000 000 001 001 002 003 002 002 005 002 000 000 -99 -99 -99 -99 -99 -99 -99 -99 -99 -99 -99 -99 -99
-99 -99 -99 000 000 000 000 000 001 000 001 001 005 004 004 001 000 000 -99 -99 -99 -99 -99 -99 -99 -99 -99 -99 -99 -99 -99
